centroides = 0;
nNurses = 216;
hours = 81;
demand = [16 50 7 29 36 32 12 50 30 9 5 26 32 2 21 51 2 31 50 21 20 10 26 37 14 28 20 5 17 49 13 37 15 17 23 8 47 52 0 1 28 49 29 42 9 38 16 13 36 18 12 26 31 26 19 12 44 12 24 29 50 24 15 48 32 27 8 0 35 45 49 1 50 17 36 37 44 0 32 26 35];
minHours = 2;
maxHours = 31;
maxConsec = 20;
maxPresence = 38;